nNurses = 119;
nHours = 31;
minHours = 7;
maxHours = 11;
maxConsec = 8;
maxPresence = 13;
demand = [13, 16, 11, 10, 9, 9, 10, 10, 12, 11, 15, 19, 16, 14, 10, 6, 8, 7, 6, 11, 12, 11, 8, 7, 8, 9, 9, 7, 12, 17, 20];
